SCIP Status        : solving was interrupted [time limit reached]
Total Time         :    3600.05
  solving          :    3600.05
  presolving       :       0.00 (included in solving)
  reading          :       0.00
  copying          :       0.41 (26 #copies) (minimal 0.00, maximal 0.28, average 0.02)
Original Problem   :
  Problem name     : water
  Variables        : 41 (0 binary, 0 integer, 0 implicit integer, 41 continuous)
  Constraints      : 25 initial, 25 maximal
  Objective        : minimize, 3 non-zeros (abs.min = 1, abs.max = 10)
Presolved Problem  :
  Problem name     : t_water
  Variables        : 114 (0 binary, 0 integer, 0 implicit integer, 114 continuous)
  Constraints      : 23 initial, 38 maximal
  Objective        : minimize, 4 non-zeros (abs.min = 1, abs.max = 10)
  Nonzeros         : 104 constraint, 0 clique table
Presolvers         :   ExecTime  SetupTime  Calls  FixedVars   AggrVars   ChgTypes  ChgBounds   AddHoles    DelCons    AddCons   ChgSides   ChgCoefs
  boundshift       :       0.00       0.00      0          0          0          0          0          0          0          0          0          0
  convertinttobin  :       0.00       0.00      0          0          0          0          0          0          0          0          0          0
  domcol           :       0.00       0.00      1          0          0          0          0          0          0          0          0          0
  dualagg          :       0.00       0.00      0          0          0          0          0          0          0          0          0          0
  dualcomp         :       0.00       0.00      1          0          0          0          0          0          0          0          0          0
  dualinfer        :       0.00       0.00      0          0          0          0          0          0          0          0          0          0
  dualsparsify     :       0.00       0.00      1          0          0          0          0          0          0          0          0          0
  gateextraction   :       0.00       0.00      0          0          0          0          0          0          0          0          0          0
  implics          :       0.00       0.00      1          0          0          0          0          0          0          0          0          0
  inttobinary      :       0.00       0.00      0          0          0          0          0          0          0          0          0          0
  qpkktref         :       0.00       0.00      0          0          0          0          0          0          0          0          0          0
  redvub           :       0.00       0.00      0          0          0          0          0          0          0          0          0          0
  sparsify         :       0.00       0.00      1          0          0          0          0          0          0          0          0          0
  stuffing         :       0.00       0.00      0          0          0          0          0          0          0          0          0          0
  trivial          :       0.00       0.00      2          0          0          0          0          0          0          0          0          0
  tworowbnd        :       0.00       0.00      0          0          0          0          0          0          0          0          0          0
  dualfix          :       0.00       0.00      2          0          0          0          0          0          0          0          0          0
  genvbounds       :       0.00       0.00      0          0          0          0          0          0          0          0          0          0
  probing          :       0.00       0.00      0          0          0          0          0          0          0          0          0          0
  pseudoobj        :       0.00       0.00      0          0          0          0          0          0          0          0          0          0
  symmetry         :       0.00       0.00      1          0          0          0          0          0          0          0          0          0
  vbounds          :       0.00       0.00      0          0          0          0          0          0          0          0          0          0
  linear           :       0.00       0.00      3          0          2          0          2          0          2          0          0          0
  nonlinear        :       0.00       0.00      4          0          0          0          3          0          0          0          0          0
  benders          :       0.00       0.00      0          0          0          0          0          0          0          0          0          0
  components       :       0.00       0.00      1          0          0          0          0          0          0          0          0          0
  root node        :          -          -      -          0          -          -         48          -          -          -          -          -
Constraints        :     Number  MaxNumber  #Separate #Propagate    #EnfoLP    #EnfoRelax  #EnfoPS    #Check   #ResProp    Cutoffs    DomReds       Cuts    Applied      Conss   Children
  benderslp        :          0          0          0          0     962481          0       5254       6963          0          0          0          0          0          0          0
  integral         :          0          0          0          0     962481          0          0       6963          0          0          0          0          0          0          0
  linear           :          7+        22          5    1465601        217          0        188       6959          0      76306    2571063          0          0          0          0
  nonlinear        :         16         16    1498931    1389295     962481          0       5254       6956          0     153379   20431759    7630967    4923745          0     667252
  benders          :          0          0          0          0        217          0       5254          4          0          0          0          0          0          0          0
  countsols        :          0          0          0          0        217          0       5254          4          0          0          0          0          0          0          0
  components       :          0          0          0          0          0          0          0          0          0          0          0          0          0          0          0
Constraint Timings :  TotalTime  SetupTime   Separate  Propagate     EnfoLP     EnfoPS     EnfoRelax   Check    ResProp    SB-Prop
  benderslp        :       0.32       0.00       0.00       0.00       0.31       0.00       0.00       0.00       0.00       0.00
  integral         :       0.23       0.00       0.00       0.00       0.23       0.00       0.00       0.00       0.00       0.00
  linear           :       6.35       0.00       0.00       6.34       0.00       0.00       0.00       0.00       0.00       0.00
  nonlinear        :    2691.00       0.00    1566.40      89.32    1035.12       0.10       0.00       0.05       0.00       0.00
  benders          :       0.00       0.00       0.00       0.00       0.00       0.00       0.00       0.00       0.00       0.00
  countsols        :       0.00       0.00       0.00       0.00       0.00       0.00       0.00       0.00       0.00       0.00
  components       :       0.11       0.00       0.00       0.11       0.00       0.00       0.00       0.00       0.00       0.00
Propagators        : #Propagate   #ResProp    Cutoffs    DomReds
  dualfix          :          2          0          0          0
  genvbounds       :     304312          0       6251     149645
  nlobbt           :          0          0          0          0
  obbt             :          4          0          0          2
  probing          :          0          0          0          0
  pseudoobj        :    2425518          0       3104     233732
  redcost          :          0          0          0          0
  rootredcost      :          3          0          0          0
  symmetry         :          0          0          0          0
  vbounds          :          0          0          0          0
Propagator Timings :  TotalTime  SetupTime   Presolve  Propagate    ResProp    SB-Prop
  dualfix          :       0.00       0.00       0.00       0.00       0.00       0.00
  genvbounds       :       1.78       0.00       0.00       1.78       0.00       0.00
  nlobbt           :       0.00       0.00       0.00       0.00       0.00       0.00
  obbt             :       0.00       0.00       0.00       0.00       0.00       0.00
  probing          :       0.00       0.00       0.00       0.00       0.00       0.00
  pseudoobj        :       1.93       0.00       0.00       1.93       0.00       0.00
  redcost          :       0.95       0.00       0.00       0.95       0.00       0.00
  rootredcost      :       0.56       0.00       0.00       0.56       0.00       0.00
  symmetry         :       0.17       0.00       0.00       0.17       0.00       0.00
  vbounds          :       0.60       0.00       0.00       0.60       0.00       0.00
Conflict Analysis  :       Time      Calls    Success    DomReds  Conflicts   Literals    Reconvs ReconvLits   Dualrays   Nonzeros   LP Iters   (pool size: [--,--])
  propagation      :       0.00          0          0          -          0        0.0          0        0.0          -          -          -
  infeasible LP    :       0.09        540        505          -          0        0.0          0        0.0        505        3.7          0
  bound exceed. LP :       0.03        762          0          -          0        0.0          0        0.0          0        0.0          0
  strong branching :       0.00          0          0          -          0        0.0          0        0.0          -          -          0
  pseudo solution  :       0.00          0          0          -          0        0.0          0        0.0          -          -          -
  applied globally :       0.00          -          -          0          0        0.0          -          -        505          -          -
  applied locally  :          -          -          -          0          0        0.0          -          -          0          -          -
Separators         :   ExecTime  SetupTime      Calls  RootCalls    Cutoffs    DomReds  FoundCuts ViaPoolAdd  DirectAdd    Applied ViaPoolApp  DirectApp      Conss
  cut pool         :       0.00          -          0          0          -          -          0          0          -          -          -          -          -    (maximal pool size:          0)
  aggregation      :       0.00       0.00          0          0          0          0          0          0          0          0          0          0          0
  > cmir           :          -          -          -          -          -          -          -          0          0          0          0          0          -
  > flowcover      :          -          -          -          -          -          -          -          0          0          0          0          0          -
  > knapsackcover  :          -          -          -          -          -          -          -          0          0          0          0          0          -
  cgmip            :       0.00       0.00          0          0          0          0          0          0          0          0          0          0          0
  clique           :       0.00       0.00          0          0          0          0          0          0          0          0          0          0          0
  closecuts        :       0.00       0.00          0          0          0          0          0          0          0          0          0          0          0
  convexproj       :       0.00       0.00          0          0          0          0          0          0          0          0          0          0          0
  disjunctive      :       0.00       0.00          0          0          0          0          0          0          0          0          0          0          0
  eccuts           :       0.00       0.00          0          0          0          0          0          0          0          0          0          0          0
  gauge            :       0.00       0.00          0          0          0          0          0          0          0          0          0          0          0
  gomory           :       0.00       0.00          0          0          0          0          0          0          0          0          0          0          0
  > gomorymi       :          -          -          -          -          -          -          -          0          0          0          0          0          -
  > strongcg       :          -          -          -          -          -          -          -          0          0          0          0          0          -
  impliedbounds    :       0.00       0.00          0          0          0          0          0          0          0          0          0          0          0
  interminor       :       0.00       0.00          0          0          0          0          0          0          0          0          0          0          0
  intobj           :       0.00       0.00          0          0          0          0          0          0          0          0          0          0          0
  mcf              :       0.00       0.00          0          0          0          0          0          0          0          0          0          0          0
  minor            :       0.00       0.00          0          0          0          0          0          0          0          0          0          0          0
  mixing           :       0.00       0.00       2246          5          0          0          0          0          0          0          0          0          0
  oddcycle         :       0.00       0.00          0          0          0          0          0          0          0          0          0          0          0
  rapidlearning    :       0.01       0.00          0          0          0          0          0          0          0          0          0          0          0
  rlt              :       0.00       0.00          5          5          0          0          0          0          0          0          0          0          0
  zerohalf         :       0.00       0.00          0          0          0          0          0          0          0          0          0          0          0
Cutselectors       :   ExecTime  SetupTime      Calls  RootCalls   Selected     Forced   Filtered  RootSelec   RootForc   RootFilt 
  hybrid           :       2.36       0.00    1177223          0    4102585          6    1317436          0          0          0
Pricers            :   ExecTime  SetupTime      Calls       Vars
  problem variables:       0.00          -          0          0
Branching Rules    :   ExecTime  SetupTime   BranchLP  BranchExt   BranchPS    Cutoffs    DomReds       Cuts      Conss   Children
  allfullstrong    :       0.00       0.00          0          0          0          0          0          0          0          0
  cloud            :       0.00       0.00          0          0          0          0          0          0          0          0
  distribution     :       0.00       0.00          0          0          0          0          0          0          0          0
  fullstrong       :       0.00       0.00          0          0          0          0          0          0          0          0
  inference        :       0.00       0.00          0          0          0          0          0          0          0          0
  leastinf         :       0.00       0.00          0          0          0          0          0          0          0          0
  lookahead        :       0.00       0.00          0          0          0          0          0          0          0          0
  mostinf          :       0.00       0.00          0          0          0          0          0          0          0          0
  multaggr         :       0.00       0.00          0          0          0          0          0          0          0          0
  nodereopt        :       0.00       0.00          0          0          0          0          0          0          0          0
  pscost           :       0.08       0.00          0       5471          0          0          0          0          0      10942
  random           :       0.00       0.00          0          0          0          0          0          0          0          0
  relpscost        :       0.00       0.00          0          0          0          0          0          0          0          0
  vanillafullstrong:       0.00       0.00          0          0          0          0          0          0          0          0
Primal Heuristics  :   ExecTime  SetupTime      Calls      Found       Best
  LP solutions     :       0.00          -          -          0          0
  relax solutions  :       0.00          -          -          0          0
  pseudo solutions :       0.00          -          -          0          0
  strong branching :       0.00          -          -          0          0
  actconsdiving    :       0.00       0.00          0          0          0
  adaptivediving   :       0.23       0.00        679          0          0
  alns             :       0.54       0.00         26          0          0
  bound            :       0.00       0.00          0          0          0
  clique           :       0.00       0.00          0          0          0
  coefdiving       :       0.00       0.00          0          0          0
  completesol      :       0.00       0.00          0          0          0
  conflictdiving   :       0.04       0.00        933          0          0
  crossover        :       0.08       0.00          0          0          0
  dins             :       0.00       0.00          0          0          0
  distributiondivin:       0.01       0.00          0          0          0
  dps              :       0.00       0.00          0          0          0
  dualval          :       0.00       0.00          0          0          0
  farkasdiving     :       0.01       0.00          0          0          0
  feaspump         :       0.01       0.00          0          0          0
  fixandinfer      :       0.00       0.00          0          0          0
  fracdiving       :       0.05       0.00        931          0          0
  gins             :       0.02       0.00          0          0          0
  guideddiving     :       0.01       0.00          0          0          0
  indicator        :       0.40       0.00          0          0          0
  indicatordiving  :       0.00       0.00          0          0          0
  intdiving        :       0.00       0.00          0          0          0
  intshifting      :       0.01       0.00          0          0          0
  linesearchdiving :       0.03       0.00        933          0          0
  localbranching   :       0.00       0.00          0          0          0
  locks            :       0.00       0.00          0          0          0
  lpface           :       0.15       0.00          0          0          0
  mpec             :       0.01       0.00          0          0          0
  multistart       :       0.04       0.00          1          0          0
  mutation         :       0.00       0.00          0          0          0
  nlpdiving        :       0.01       0.00          0          0          0
  objpscostdiving  :       0.01       0.00          0          0          0
  octane           :       0.00       0.00          0          0          0
  ofins            :       0.08       0.00          0          0          0
  oneopt           :       0.24       0.00          0          0          0
  padm             :       0.00       0.00          0          0          0
  proximity        :       0.00       0.00          0          0          0
  pscostdiving     :       0.01       0.00          0          0          0
  randrounding     :       0.03       0.00          0          0          0
  rens             :       0.17       0.00          0          0          0
  reoptsols        :       0.00       0.00          0          0          0
  repair           :       0.00       0.00          0          0          0
  rins             :       0.01       0.00          0          0          0
  rootsoldiving    :       0.01       0.00          0          0          0
  rounding         :       0.56       0.00          0          0          0
  shiftandpropagate:       0.00       0.00          0          0          0
  shifting         :       0.05       0.00          0          0          0
  simplerounding   :       0.52       0.00          0          0          0
  subnlp           :      16.93       0.00         41          3          3
  trivial          :       0.00       0.00          2          0          0
  trivialnegation  :       0.00       0.00          0          0          0
  trustregion      :       0.00       0.00          0          0          0
  trysol           :       0.24       0.00          0          0          0
  twoopt           :       0.00       0.00          0          0          0
  undercover       :       0.00       0.00          1          0          0
  vbounds          :       0.00       0.00          0          0          0
  veclendiving     :       0.01       0.00          0          0          0
  zeroobj          :       0.00       0.00          0          0          0
  zirounding       :       0.13       0.00          0          0          0
  other solutions  :          -          -          -          0          -
Expressions        :   #IntEval  IntEvalTi   #RevProp  RevPropTi    DomReds    Cutoffs  #Estimate  EstimTime  Branching  #Simplify SimplifyTi Simplified
  abs              :   16165517       0.95     650254       0.06      87012          0    4563104       0.32    1729468         29       0.00          0
  pow              :   31638919       4.52    2413802       1.18    1818572          0   15344650       3.01     345832         85       0.00         14
  prod             :   13348248       3.05   11623140       8.43    3322119         68   34975556    2391.46   14174008         80       0.00         61
  sum              :   14726839       4.42   13444369       7.05    9147319      26431         16       0.00          0        103       0.00         22
  val              :          0       0.00          0       0.00          0          0          0       0.00          0          0       0.00          0
  var              :   16228637       0.77          0       0.00          0          0          0       0.00          0        174       0.00          2
Nlhdlrs            :    Detects  DetectAll DetectTime   #IntEval  IntEvalTi   #RevProp  RevPropTi    DomReds    Cutoffs   #Enforce   EnfoTime       Cuts  Branching
  soc              :          0          0       0.00          0       0.00          0       0.00          0          0          0       0.00          0          0
  convex           :          1          1       0.00          0       0.00          0       0.00          0          0         60       0.00         59          0
  concave          :          1          1       0.00          0       0.00          0       0.00          0          0     347664       0.74      22676          0
  quotient         :          0          0       0.00          0       0.00          0       0.00          0          0          0       0.00          0          0
  quadratic        :          1          5       0.00    1210870       1.74    1189011       3.01     684140        427          0       0.00          0          0
  default          :        115        563       0.00   75879299      17.12   28131682      38.59   14375022      51227   54883268    2468.31    7608341          0
  bilinear         :          3          3       0.00     671215       0.07     134793       0.01          0          0    3125520       0.34          0          0
  perspective      :          0          0       0.00          0       0.00          0       0.00          0          0          0       0.00          0          0
LP                 :       Time      Calls Iterations  Iter/call   Iter/sec  Time-0-It Calls-0-It    ItLimit
  primal LP        :      64.45     237198       4133       4.64      64.13      64.01     236308
  dual LP          :     554.28    1874402    9404091       5.65   16966.41      30.22     208784
  lex dual LP      :       0.00          0          0       0.00          -
  barrier LP       :       0.00          0          0       0.00          -       0.00          0
  resolve instable :       0.24        411       8427      20.50   35517.40
  diving/probing LP:       0.00         29        116       4.00          -
  strong branching :       0.00          0          0       0.00          -          -          -          0
    (at root node) :          -          0          0       0.00          -
  conflict analysis:       0.00          0          0       0.00          -
NLP relaxation     :
  solve time       :       0.00 (0 calls)
  convexity        :  nonconvex (7 linear rows, 0 convex ineq., 0 nonconvex ineq., 16 nonlinear eq. or two-sided ineq.)
NLP Solvers        :  #Problems  ProblemTi    #Solves  SolveTime      #Iter  Time/Iter      #Okay #TimeLimit #IterLimit #LObjLimit #Interrupt  #NumError #EvalError  #OutOfMem #LicenseEr #OtherTerm   #GlobOpt    #LocOpt  #Feasible #LocInfeas #GlobInfea #Unbounded   #Unknown
  ipopt            :          2       0.00         41      16.59      16421       0.00         28          0         13          0          0          0          0          0          0          0          0         28          0          0          0          0         13
B&B Tree           :
  number of runs   :          1
  nodes            :     579711 (339097 internal, 240614 leaves)
  feasible leaves  :          0
  infeas. leaves   :     239498
  objective leaves :       1115
  nodes (total)    :     579711 (339097 internal, 240614 leaves)
  nodes left       :      97961
  max depth        :        122
  max depth (total):        122
  backtracks       :      48172 (8.3%)
  early backtracks :          0 (0.0%)
  nodes exc. ref.  :          0 (0.0%)
  delayed cutoffs  :        133
  repropagations   :      22343 (26575 domain reductions, 76 cutoffs)
  avg switch length:       5.34
  switching time   :     106.28
Root Node          :
  First LP value   : +1.41680160385118e+02
  First LP Iters   :          0
  First LP Time    :       0.00
  Final Dual Bound : +1.41680160385118e+02
  Final Root Iters :          0
  Root LP Estimate : +1.71348461820844e+02
Solution           :
  Solutions found  :          3 (3 improvements)
  First Solution   : +9.64507687547102e+02   (in run 1, after 1400 nodes, 3.47 seconds, depth 36, found by <linesearchdiving>)
  Gap First Sol.   :     580.76 %
  Gap Last Sol.    :     542.71 %
  Primal Bound     : +9.10811257734660e+02   (in run 1, after 226204 nodes, 1296.24 seconds, depth 90, found by <subnlp>)
  Dual Bound       : +1.41743552202999e+02
  Gap              :     542.58 %
Integrals          :      Total       Avg%
  primal-dual      :  304972.03      84.71
  primal-ref       :          -          - (not evaluated)
  dual-ref         :          -          - (not evaluated)
